60 60
0 0 5 30
5 0 10 26
15 0 12 19
27 0 7 18
34 0 3 18
37 0 8 17
45 0 4 17
49 0 3 17
37 17 9 14
52 0 4 14
56 0 4 14
46 17 12 14
27 18 10 14
15 19 3 13
18 19 9 12
5 26 3 12
8 26 4 10
37 31 13 10
37 41 13 9
0 30 4 9
12 26 3 9
37 50 14 9
18 31 5 8
23 31 4 7
58 17 2 7
50 31 6 6
58 24 2 6
27 32 7 5
8 36 6 5
27 37 6 5
4 30 1 5
56 31 4 4
15 32 3 4
34 32 2 4
56 35 2 4
36 32 1 4
52 14 5 3
18 39 9 2
50 37 6 2
0 39 5 2
57 14 1 1
33 37 4 1
